NAME : E100.0_lambda_600-1.output_tours.5414.774414.tour
TYPE : SOLUTION PTSP
DIMENSION : 100
TOUR_SECTION
SERVICE_TIME = 2549178
DAY = 1
Dimention = 13
1
7
11
53
3
31
20
64
37
77
62
85
79
------------
SERVICE_TIME = 2547022
DAY = 2
Dimention = 11
1
96
18
74
81
84
69
6
33
100
93
------------
SERVICE_TIME = 2515530
DAY = 3
Dimention = 9
1
91
56
21
67
97
10
22
98
------------
SERVICE_TIME = 2542903
DAY = 4
Dimention = 14
1
65
50
34
88
24
9
41
28
48
47
70
27
71
------------
SERVICE_TIME = 2524770
DAY = 5
Dimention = 12
1
83
2
57
45
87
99
95
32
16
66
90
------------
SERVICE_TIME = 2507173
DAY = 6
Dimention = 10
1
35
86
75
94
55
8
36
62
26
------------
SERVICE_TIME = 2537506
DAY = 7
Dimention = 14
1
43
7
11
53
29
60
31
20
64
13
85
80
79
------------
SERVICE_TIME = 2546359
DAY = 8
Dimention = 10
1
93
59
19
51
63
12
84
81
49
------------
SERVICE_TIME = 2543250
DAY = 9
Dimention = 9
1
71
69
17
18
39
72
25
77
------------
SERVICE_TIME = 2545045
DAY = 10
Dimention = 12
1
48
38
33
100
40
4
89
9
10
22
98
------------
SERVICE_TIME = 2532512
DAY = 11
Dimention = 11
1
23
67
97
82
61
78
88
37
52
50
------------
SERVICE_TIME = 2519628
DAY = 12
Dimention = 10
1
70
57
30
6
91
56
21
28
68
------------
SERVICE_TIME = 2525395
DAY = 13
Dimention = 9
1
32
99
14
66
76
62
34
65
------------
SERVICE_TIME = 2504466
DAY = 14
Dimention = 7
1
87
16
96
44
55
92
------------
SERVICE_TIME = 2518575
DAY = 15
Dimention = 12
1
26
27
54
53
60
31
3
11
5
7
13
------------
SERVICE_TIME = 2506801
DAY = 16
Dimention = 9
1
46
64
75
42
8
73
85
79
------------
SERVICE_TIME = 2539242
DAY = 17
Dimention = 13
1
98
9
41
20
29
15
48
47
93
71
12
90
------------
SERVICE_TIME = 2533036
DAY = 18
Dimention = 16
1
43
24
88
25
72
39
58
18
74
49
81
36
62
84
80
------------
SERVICE_TIME = 2546489
DAY = 19
Dimention = 9
1
35
22
2
57
45
69
51
95
------------
SERVICE_TIME = 2500181
DAY = 20
Dimention = 10
1
50
77
37
86
10
97
67
28
83
------------
SERVICE_TIME = 2533005
DAY = 21
Dimention = 10
1
66
63
17
33
19
100
40
59
70
------------
SERVICE_TIME = 2534092
DAY = 22
Dimention = 5
1
91
21
94
34
------------
SERVICE_TIME = 2508195
DAY = 23
Dimention = 9
1
87
99
32
16
55
52
13
65
------------
SERVICE_TIME = 2539898
DAY = 24
Dimention = 10
1
30
6
56
31
60
53
11
7
89
------------
SERVICE_TIME = 2539109
DAY = 25
Dimention = 13
1
26
93
27
71
79
85
76
8
78
82
64
98
------------
SERVICE_TIME = 2525657
DAY = 26
Dimention = 10
1
9
75
20
23
29
28
4
38
48
------------
SERVICE_TIME = 2538441
DAY = 27
Dimention = 11
1
50
62
88
25
96
81
84
12
57
68
------------
SERVICE_TIME = 2541642
DAY = 28
Dimention = 7
1
14
69
47
22
61
43
------------
SERVICE_TIME = 2524005
DAY = 29
Dimention = 9
1
10
97
92
39
72
18
49
36
------------
SERVICE_TIME = 2503863
DAY = 30
Dimention = 10
1
41
67
3
11
5
70
90
66
80
------------
DELAYS_SECTION
-3 -9 -8 -9 -1 -4 -3 -3 -2 -4 -5 -4 -8 -11 -4 -5 0 -5 -4 -1 -1 -7 -1 -5 -4 -3 -2 -4 -8 -4 -3 -1 -3 -4 -4 -7 -6 -5 -6 -2 -10 -5 -9 -2 -10 -2 -2 -4 -3 -5 -7 -4 -9 -3 0 -4 -11 -4 -3 -7 -4 -4 -5 -3 -2 -1 -9 -1 -2 -2 -5 -10 0 -3 -8 -6 -6 -4 -5 -2 -7 -3 -1 -4 -3 -2 -2 -6 -3 0 -9 -2 -4 -4 -2 -1 -1 -3 0 
-2 -8 -7 -8 -7 -3 -2 -2 -1 -3 -4 -3 -7 -10 -3 -4 -5 -4 -3 0 0 -6 0 -4 -3 -2 -1 -3 -7 -3 -2 -5 -2 -3 -3 -6 -5 -4 -5 -1 -9 -4 -8 -1 -9 -1 -1 -3 -2 -4 -6 -3 -8 -2 1 -3 -10 -3 -2 -6 -3 -3 -4 -2 -1 0 -8 -5 -1 -1 -4 -9 -10 -2 -7 -5 -5 -3 -4 -4 -6 -2 -5 -3 -2 -1 -1 -5 -2 1 -8 -4 -3 -3 -8 0 0 -2 -5 
-1 -7 -6 -7 -6 -2 -1 -1 -4 -2 -3 -2 -6 -9 -2 -3 -4 -3 -2 -5 -4 -5 1 -3 -2 -1 0 -2 -6 -2 -1 -4 -1 -2 -2 -5 -4 -3 -4 0 -8 -3 -7 0 -8 0 0 -2 -1 -3 -5 -2 -7 -1 -7 -2 -9 -2 -1 -5 -2 -2 -3 -1 0 -5 -7 -4 0 0 -3 -8 -9 -1 -6 -4 -4 -2 -3 -3 -5 -1 -4 -2 -1 0 0 -4 -1 -5 -7 -3 -2 -2 -7 -4 -4 -1 -4 
0 -6 -5 -6 -5 -1 0 -5 -3 -1 -2 -1 -5 -8 -1 -2 -3 -2 -1 -4 -3 -4 -9 -2 -1 -7 -4 -1 -5 -1 0 -3 -5 -1 -1 -4 -3 -2 -3 -8 -7 -2 -6 1 -7 -8 -4 -1 -4 -2 -4 -1 -6 0 -6 -1 -8 -1 0 -4 -1 -1 -2 -6 1 -4 -6 -3 -5 -4 -2 -7 -8 0 -5 -3 -3 -1 -2 -2 -4 0 -3 -1 0 1 -4 -3 0 -4 -6 -2 -1 -1 -6 -3 -3 0 -3 
-9 -5 -4 -5 -4 0 1 -4 -2 0 -1 0 -4 -7 -5 -1 -2 -1 0 -3 -2 -3 -8 -1 0 -6 -3 0 -4 0 -5 -2 -4 0 0 -3 -2 -1 -2 -7 -6 -1 -5 -8 -6 -7 -3 0 -3 -1 -3 0 -5 1 -5 -4 -7 0 1 -3 0 0 -1 -5 -4 -3 -5 -2 -4 -3 -1 -6 -7 1 -4 -2 -2 0 -1 -1 -3 -11 -2 0 1 -5 -3 -2 -8 -3 -5 -1 0 -8 -5 -2 -2 -5 -2 
-8 -4 -3 -4 -3 1 -5 -3 -1 1 0 1 -3 -6 -4 0 -1 0 1 -2 -1 -2 -7 0 -5 -5 -2 1 -3 1 -4 -1 -3 -9 -7 -2 -1 0 -1 -6 -5 0 -4 -7 -5 -6 -2 1 -2 0 -2 1 -4 -4 -4 -3 -6 1 2 -2 -4 1 0 -4 -3 -2 -4 -1 -3 -2 0 -5 -6 -5 -3 -1 -1 1 0 0 -2 -10 -1 1 -9 -4 -2 -1 -7 -2 -4 0 -11 -7 -4 -1 -1 -4 -1 
-7 -3 -2 -3 -2 -4 -4 -2 0 -4 1 -4 -2 -5 -3 1 0 1 -4 -1 0 -1 -6 1 -4 -4 -1 -5 -2 -4 -3 0 -2 -8 -6 -1 0 1 0 -5 -4 -7 -3 -6 -4 -5 -1 2 -1 1 -1 -4 -3 -3 -3 -2 -5 2 -4 -1 -3 2 -5 -3 -2 -1 -3 0 -2 -1 1 -4 -5 -4 -2 0 0 -4 -7 1 -1 -9 0 -4 -8 -3 -1 0 -6 -1 -3 1 -10 -6 -3 0 0 -3 0 
-6 -2 -1 -2 -1 -3 -3 -1 1 -3 -5 -3 -1 -4 -2 2 1 -8 -3 0 1 0 -5 2 -3 -3 0 -4 -1 -3 -2 1 -1 -7 -5 0 1 2 1 -4 -3 -6 -2 -5 -3 -4 0 -5 0 -6 0 -3 -2 -2 -2 -1 -4 -9 -3 0 -2 -9 -4 -2 -1 0 -2 1 -1 0 2 -3 -4 -3 -1 1 1 -3 -6 -4 0 -8 -5 -3 -7 -2 0 1 -5 0 -2 -4 -9 -5 -2 1 1 -2 1 
-5 -1 0 -1 0 -2 -2 0 2 -2 -4 -2 0 -3 -1 -6 -5 -7 -2 1 2 1 -4 -5 -2 -2 1 -3 0 -2 -1 2 0 -6 -4 1 2 -6 2 -3 -2 -5 -1 -4 -2 -3 1 -4 1 -5 1 -2 -1 -1 -1 0 -3 -8 -2 1 -1 -8 -3 -1 0 1 -1 -5 0 -4 -5 -2 -3 -2 0 -6 2 -2 -5 -3 1 -7 -4 -2 -6 -1 1 2 -4 1 -1 -3 -8 -4 -1 2 2 -1 2 
-4 0 -11 0 1 -1 -1 -5 -4 -1 -3 -1 1 -2 0 -5 -4 -6 -1 2 -4 2 -3 -4 -1 -1 2 -2 1 -1 0 -5 1 -5 -3 2 -12 -5 -8 -2 -1 -4 0 -3 -1 -2 -4 -3 2 -4 2 -1 0 0 0 1 -2 -7 -1 2 0 -7 -2 0 1 2 0 -4 1 -3 -4 -1 -2 -1 1 -5 3 -1 -4 -2 2 -6 -3 -1 -5 0 2 -10 -3 2 0 -2 -7 -3 0 3 -4 0 -5 
-3 1 -10 1 2 0 0 -4 -3 0 -2 0 2 -1 1 -4 -3 -5 0 3 -3 -11 -2 -3 0 0 3 -1 2 0 1 -4 2 -4 -2 -7 -11 -4 -7 -1 0 -3 1 -2 0 -1 -3 -2 -4 -3 -8 0 1 1 1 2 -1 -6 0 -11 1 -6 -1 1 2 -5 1 -3 2 -2 -3 0 -1 0 2 -4 -9 0 -3 -1 -8 -5 -2 0 -4 1 -4 -9 -2 3 1 -1 -6 -2 1 -4 -3 1 -4 
-2 2 -9 2 -7 1 1 -3 -2 1 -1 1 3 0 2 -3 -2 -4 1 -5 -2 -10 -1 -2 1 1 -4 0 -8 1 2 -3 3 -3 -1 -6 -10 -3 -6 0 1 -2 2 -1 1 0 -2 -1 -3 -2 -7 1 2 2 -7 -4 0 -5 1 -10 2 -5 0 2 3 -4 -10 -2 -5 -1 -2 1 0 1 3 -3 -8 1 -2 0 -7 -4 -1 1 -3 2 -3 -8 -1 -5 2 0 -5 -1 2 -3 -2 2 -3 
-1 3 -8 3 -6 2 2 -2 -1 2 0 2 -9 1 3 -2 -1 -3 2 -4 -1 -9 0 -1 2 2 -3 1 -7 2 -5 -2 -5 -2 0 -5 -9 -2 -5 1 2 -1 3 0 2 1 -1 0 -2 -1 -6 2 3 3 -6 -3 1 -4 2 -9 -4 -4 1 -6 -4 -3 -9 -1 -4 0 -1 2 1 2 -9 -2 -7 2 -1 1 -6 -3 0 2 -2 3 -2 -7 0 -4 3 1 -4 0 3 -2 -1 -5 -2 
0 4 -7 4 -5 3 3 -1 0 3 1 3 -8 2 -5 -1 0 -2 3 -3 0 -8 1 0 3 3 -2 2 -6 3 -4 -1 -4 -1 1 -4 -8 -1 -4 2 3 0 -11 1 3 2 0 1 -1 0 -5 3 4 -4 -5 -2 2 -3 3 -8 -3 -3 2 -5 -3 -2 -8 0 -3 1 0 3 2 3 -8 -1 -6 3 0 2 -5 -2 1 3 -1 -5 -1 -6 1 -3 -11 2 -3 1 -8 -1 0 -4 -1 
1 -9 -6 -10 -4 -4 4 0 1 -4 2 -4 -7 3 -4 0 1 -1 4 -2 1 -7 2 1 -5 -7 -1 3 -5 -4 -3 0 -3 0 2 -3 -7 0 -3 3 4 1 -10 2 4 3 1 2 0 1 -4 -4 -10 -3 -4 -1 3 -2 -4 -7 -2 -2 3 -4 -2 -1 -7 1 -2 2 1 4 3 4 -7 0 -5 4 1 3 -4 -1 2 4 0 -4 0 -5 2 -2 -10 3 -2 2 -7 0 1 -3 0 
2 -8 -5 -9 -3 -3 -5 1 2 -3 3 -3 -6 4 -3 1 2 0 5 -1 2 -6 3 2 -4 -6 0 4 -4 -3 -2 1 -2 1 3 -2 -6 1 -2 4 -10 2 -9 3 -10 4 2 3 1 2 -3 -3 -9 -2 -3 0 4 -1 -3 -6 -1 -1 -5 -3 -1 0 -6 2 -1 3 2 -12 4 -5 -6 1 -4 -4 2 4 -3 0 3 -4 1 -3 1 -4 3 -1 -9 4 -1 3 -6 1 2 -2 1 
3 -7 -4 -8 -2 -2 -4 -5 3 -2 -5 -2 -5 -11 -2 2 3 1 -4 0 3 -5 4 3 -3 -5 1 -5 -3 -2 -1 2 -1 2 4 -1 -5 2 -1 -8 -9 3 -8 4 -9 -8 -4 4 2 3 -2 -2 -8 -1 -2 1 5 0 -2 -5 0 0 -4 -2 0 1 -5 3 0 -4 3 -11 5 -4 -5 2 -3 -3 3 5 -2 1 4 -3 2 -2 2 -3 -8 0 -8 -4 0 4 -5 2 -4 -1 2 
4 -6 -3 -7 -1 -1 -3 -4 4 -1 -4 -1 -4 -10 -1 3 -5 2 -3 1 4 -4 -9 -5 -2 -4 2 -4 -2 -1 0 3 0 3 -7 0 -4 -6 0 -7 -8 -7 -7 5 -8 -7 -3 -5 3 4 -1 -1 -7 0 -1 2 -12 1 -1 -4 -4 1 -3 -1 1 2 -4 4 1 -3 -5 -10 -10 -3 -4 3 -2 -2 -7 -4 -1 2 -5 -2 3 -1 -4 -2 -7 1 -7 -3 1 5 -4 3 -3 0 3 
-9 -5 -2 -6 0 0 -2 -3 5 0 -3 0 -3 -9 0 4 -4 3 -2 2 -4 -3 -8 -4 -1 -3 3 -3 -1 0 1 4 1 -9 -6 1 -3 -5 1 -6 -7 -6 -6 -8 -7 -6 -2 -4 4 -6 0 0 -6 1 0 -4 -11 2 0 -3 -3 2 -2 0 2 3 -3 -5 2 -2 -4 -9 -9 -2 -3 4 -1 -1 -6 -3 0 3 -4 -1 4 0 -3 -1 -6 2 -6 -2 2 -8 -3 4 -2 1 4 
-8 -4 -1 -5 1 1 -1 -2 -4 1 -2 1 -2 -8 1 5 -3 4 -1 3 -3 -2 -7 -3 0 -2 -4 -2 0 1 2 5 2 -8 -5 -7 -2 -4 2 -5 -6 -5 -5 -7 -6 -5 -1 -3 -4 -5 1 1 -5 2 1 -3 -10 3 1 -2 -2 3 -1 1 3 -5 -2 -4 3 -1 -3 -8 -8 -1 -2 -6 0 0 -5 -2 1 -11 -3 0 -9 1 -2 0 -5 3 -5 -1 3 -7 -2 -4 -1 2 5 
-7 -3 0 -4 2 2 0 -1 -3 2 -1 2 -1 -7 2 -6 -2 -8 0 4 -2 -1 -6 -2 1 -1 -3 -1 1 2 3 -5 3 -7 -4 -6 -1 -3 -8 -4 -5 -4 -4 -6 -5 -4 0 -2 -3 -4 2 2 -4 3 2 -2 -9 -9 2 -1 -1 -9 0 2 -4 -4 -1 -3 -5 0 -2 -7 -7 0 -1 -5 1 1 -4 -1 2 -10 -2 1 -8 2 -1 1 -4 4 -4 0 4 -6 -1 -3 0 3 -5 
-6 -2 1 -3 3 3 1 0 -2 3 0 3 0 -6 3 -5 -1 -7 1 -5 -1 0 -5 -1 2 0 -2 0 2 3 4 -4 -5 -6 -3 -5 0 -2 -7 -3 -4 -3 -3 -5 -4 -3 1 -1 -2 -3 3 3 -3 4 3 -1 -8 -8 3 0 0 -8 1 3 -3 -3 0 -2 -4 1 -1 -6 -6 1 0 -4 2 2 -3 0 3 -9 -1 2 -7 3 0 2 -3 -5 -3 1 -11 -5 0 -2 1 4 -4 
-5 -1 2 -2 4 4 2 1 -1 4 1 -4 1 -5 -5 -4 0 -6 2 -4 0 1 -4 0 3 1 -1 1 3 4 -5 -3 -4 -5 -2 -4 1 -1 -6 -2 -3 -2 -2 -4 -3 -2 2 0 -1 -2 -8 4 -2 -4 4 0 -7 -7 4 1 1 -7 2 -6 -2 -2 1 -1 -3 2 0 -5 -5 2 1 -3 3 3 -2 1 4 -8 0 3 -6 -5 1 3 -2 -4 -2 2 -10 -4 1 -1 2 -5 -3 
-4 0 3 -1 -7 -4 3 2 0 -4 2 -3 2 -4 -4 -3 1 -5 3 -3 1 2 -3 1 4 2 0 2 -8 -4 -4 -2 -3 -4 -1 -3 2 0 -5 -1 -2 -1 -1 -3 -2 -1 3 1 0 -1 -7 -4 -1 -3 -7 1 -6 -6 -4 2 2 -6 3 -5 -1 -1 2 0 -2 3 1 -4 -4 3 2 -2 4 4 -1 2 5 -7 1 4 -5 -4 2 -10 -1 -3 -1 3 -9 -3 2 0 3 -4 -2 
-3 1 4 0 -6 -3 -5 3 1 -3 3 -2 3 -3 -3 -2 2 -4 4 -2 2 3 -2 2 -5 -7 1 3 -7 -3 -3 -1 -2 -3 0 -2 3 1 -4 0 -1 0 0 -2 -1 0 4 2 1 0 -6 -3 0 -2 -6 2 -5 -5 -3 3 3 -5 -5 -4 0 0 3 1 -1 -4 2 -3 -3 4 -9 -1 -9 -4 0 3 -8 -6 2 -4 -4 -3 3 -9 0 -2 0 -4 -8 -2 3 1 -4 -3 -1 
-2 2 -11 1 -5 -2 -4 -5 2 -2 4 -1 4 -2 -2 -1 3 -3 -4 -1 3 -11 -1 3 -4 -6 -4 -5 -6 -2 -2 0 -1 -2 1 -1 -12 2 -3 1 0 1 1 -1 0 1 -4 3 2 1 -5 -2 1 -1 -5 3 -4 -4 -2 4 4 -4 -4 -3 1 1 4 2 0 -3 3 -2 -2 -5 -8 0 -8 -3 1 4 -7 -5 3 -3 -3 -2 4 -8 1 -1 1 -3 -7 -1 4 2 -3 -2 0 
-1 3 -10 2 -4 -1 -3 -4 3 -1 -5 0 5 -1 -1 0 4 -2 -3 0 4 -10 0 -5 -3 -5 -3 -4 -5 -1 -1 1 0 -1 2 0 -11 3 -2 2 1 2 2 0 1 2 -3 4 -4 2 -4 -1 2 0 -4 -4 -3 -3 -1 5 -4 -3 -3 -2 2 2 -10 3 1 -2 4 -1 -1 -4 -7 1 -7 -2 2 -4 -6 -4 -5 -2 -2 -1 -4 -7 2 0 2 -2 -6 0 -8 3 -2 -1 1 
0 4 -9 3 -3 0 -2 -3 4 0 -4 1 -9 0 0 1 5 -1 -2 1 -4 -9 1 -4 -2 -4 -2 -3 -4 0 0 2 1 0 3 1 -10 4 -1 3 2 -7 3 1 2 -8 -2 5 -3 3 -3 0 3 1 -3 -3 -2 -2 0 -11 -3 -2 -2 -1 3 3 -9 -5 2 -1 5 0 0 -3 -6 2 -6 -1 3 -3 -5 -3 -4 -1 -1 0 -3 -6 3 1 3 -1 -5 1 -7 4 -1 0 2 
1 5 -8 4 -2 1 -1 -2 -4 1 -3 2 -8 1 1 2 -5 0 -1 2 -3 -8 2 -3 -1 -3 -1 -2 -3 1 1 3 2 1 -7 2 -9 -6 0 4 3 -6 4 2 3 -7 -1 -5 -2 4 -2 1 4 2 -2 -2 -1 -1 1 -10 -2 -1 -1 0 4 4 -8 -4 3 0 -5 1 1 -2 -5 3 -5 0 4 -2 -4 -2 -3 0 0 1 -2 -5 4 2 -11 0 -4 2 -6 -4 0 1 3 
2 -9 -7 -10 -1 2 0 -1 -3 -4 -2 3 -7 2 2 3 -4 1 0 3 -2 -7 3 -2 0 -2 0 -1 -2 2 2 4 3 2 -6 3 -8 -5 1 -8 4 -5 5 3 4 -6 0 -4 -1 5 -1 2 5 3 -1 -1 0 0 2 -9 -1 0 0 1 -4 -5 -7 -3 -5 1 -4 2 2 -1 -4 4 -4 1 -7 -1 -3 -1 -2 1 1 2 -1 -4 -8 3 -10 1 -3 3 -5 -3 1 2 4 
-1
EOF
